Solving original (integer) problem with strategy gdp.bigm...
--- Job model.gms Start 02/15/26 21:42:21 52.2.0 d8e408be LEX-LEG x86 64bit/Linux
--- Applying:
    /package/gams/52.2/gmsprmun.txt
--- GAMS Parameters defined
    Input /local/scratch/a/sgusev/repos/k_means/data/gams_scip_gdp.bigm/no_mode/2026-02-15_21-42-21/original/model.gms
    Output /local/scratch/a/sgusev/repos/k_means/data/gams_scip_gdp.bigm/no_mode/2026-02-15_21-42-21/original/output.lst
    ScrDir /local/scratch/a/sgusev/repos/k_means/data/gams_scip_gdp.bigm/no_mode/2026-02-15_21-42-21/original/225a/
    SysDir /package/gams/52.2/
    CurDir /local/scratch/a/sgusev/repos/k_means/data/gams_scip_gdp.bigm/no_mode/2026-02-15_21-42-21/original/
    LogOption 3
    AppendLog 1
Licensee: David Bernal / SECQUOIA Research Group         G251008+0003Ac-GEN
          Purdue University, Davidson School of Chemical EngineeringDCE4838
          225a/gamslice.dat
          5a82958a-fbca-4a23
          node:66820903 mem:995 cores:48 ipport:54511 v:2                  
          Evaluation license: Not for commercial or production use
          The time-limited license stops working on : Jun 30, 2027
System information: 48 physical cores and 995 Gb physical memory detected
GAMS 52.2.0   Copyright (C) 1987-2025 GAMS Development. All rights reserved
--- Starting compilation
--- model.gms(209) 2 Mb
--- $echo File /local/scratch/a/sgusev/repos/k_means/data/gams_scip_gdp.bigm/no_mode/2026-02-15_21-42-21/original/scip.opt
--- model.gms(382) 2 Mb
--- Starting execution: elapsed 0:00:00.005
--- model.gms(219) 3 Mb
--- Generating MINLP model GAMS_MODEL
--- model.gms(223) 5 Mb
---   51 rows  55 columns  197 non-zeroes
---   324 nl-code  72 nl-non-zeroes
---   36 discrete-columns
--- Range statistics (absolute non-zero finite values)
--- RHS       [min, max] : [ 1.000E+00, 7.038E+00] - Zero values observed as well
--- Bound     [min, max] : [ 1.000E+00, 4.800E+01] - Zero values observed as well
--- Matrix    [min, max] : [ 1.633E-01, 7.038E+00]
--- model.gms(223) 3 Mb
--- Executing SCIP (Solvelink=5): elapsed 0:00:00.008

SCIP             52.2.0 d8e408be Dec 8, 2025           LEG x86 64bit/Linux    
SCIP version 9.2.4 (a94f778ac8)
Copyright (c) 2002-2025 Zuse Institute Berlin (ZIB)

External libraries: 
  CPLEX 22.1.2.0       Linear Programming Solver developed by IBM (www.cplex.com)
  CppAD 20180000.0     Algorithmic Differentiation of C++ algorithms developed by B. Bell (github.com/coin-or/CppAD)
  PaPILO 2.4.4         parallel presolve for integer and linear optimization (github.com/scipopt/papilo) (built with TBB) [GitHash: 7c826d50]
  Nauty 2.8.9          Computing Graph Automorphism Groups by Brendan D. McKay (users.cecs.anu.edu.au/~bdm/nauty)
  sassy 1.1            Symmetry preprocessor by Markus Anders (github.com/markusa4/sassy)
  Ipopt 3.14.19        Interior Point Optimizer developed by A. Waechter et.al. (github.com/coin-or/Ipopt)

reading option file /local/scratch/a/sgusev/repos/k_means/data/gams_scip_gdp.bigm/no_mode/2026-02-15_21-42-21/original/scip.opt
non-default parameter settings:
limits/time = 300
limits/gap = 1e-06
limits/absgap = 1e-10
lp/threads = 1
misc/printreason = FALSE
numerics/dualfeastol = 1e-06
parallel/maxnthreads = 1
nlpi/ipopt/linear_solver = "ma27"
nlpi/ipopt/linear_system_scaling = "mc19"

original problem has 54 variables (36 bin, 0 int, 18 cont) and 50 constraints

all 1 solutions given by solution candidate storage are infeasible

presolving:
(round 1, exhaustive) 0 del vars, 0 del conss, 0 add conss, 0 chg bounds, 0 chg sides, 0 chg coeffs, 12 upgd conss, 0 impls, 12 clqs
   (0.0s) probing cycle finished: starting next cycle
   (0.0s) symmetry computation started: requiring (bin +, int +, cont +), (fixed: bin -, int -, cont -)
   (0.0s) no symmetry present (symcode time: 0.00)
presolving (2 rounds: 2 fast, 2 medium, 2 exhaustive):
 0 deleted vars, 0 deleted constraints, 0 added constraints, 0 tightened bounds, 0 added holes, 0 changed sides, 0 changed coefficients
 0 implications, 12 cliques
presolved problem has 54 variables (36 bin, 0 int, 0 impl, 18 cont) and 50 constraints
     12 constraints of type <setppc>
      2 constraints of type <linear>
     36 constraints of type <nonlinear>
Presolving Time: 0.01

 time | node  | left  |LP iter|LP it/n|mem/heur|mdpt |vars |cons |rows |cuts |sepa|confs|strbr|  dualbound   | primalbound  |  gap   | compl. 
t 0.0s|     1 |     0 |    36 |     - |  trysol|   0 |  96 |  50 |  62 |   0 |  0 |   0 |   0 | 0.000000e+00 | 1.007335e+01 |    Inf | unknown
  0.0s|     1 |     0 |    67 |     - |  1747k |   0 |  96 |  50 |  62 |   0 |  0 |   0 |   0 | 0.000000e+00 | 1.007335e+01 |    Inf | unknown
L 0.0s|     1 |     0 |    67 |     - |undercov|   0 |  96 |  50 |  62 |   0 |  0 |   0 |   0 | 0.000000e+00 | 7.057109e+00 |    Inf | unknown
L 0.1s|     1 |     0 |    67 |     - |undercov|   0 |  96 |  50 |  62 |   0 |  0 |   0 |   0 | 0.000000e+00 | 2.991839e+00 |    Inf | unknown
  0.1s|     1 |     0 |    75 |     - |  1884k |   0 |  96 |  50 |  69 |   7 |  1 |   0 |   0 | 0.000000e+00 | 2.991839e+00 |    Inf | unknown
  0.1s|     1 |     0 |    75 |     - |  1890k |   0 |  96 |  50 |  69 |   7 |  1 |   0 |   0 | 0.000000e+00 | 2.991839e+00 |    Inf | unknown
  0.1s|     1 |     0 |    89 |     - |  1997k |   0 |  96 |  50 |  77 |  15 |  2 |   0 |   0 | 0.000000e+00 | 2.991839e+00 |    Inf | unknown
  0.1s|     1 |     0 |   107 |     - |  2036k |   0 |  96 |  50 |  85 |  23 |  3 |   0 |   0 | 0.000000e+00 | 2.991839e+00 |    Inf | unknown
  0.1s|     1 |     0 |   120 |     - |  2134k |   0 |  96 |  50 |  91 |  29 |  4 |   0 |   0 | 0.000000e+00 | 2.991839e+00 |    Inf | unknown
  0.1s|     1 |     0 |   135 |     - |  2338k |   0 |  96 |  50 |  97 |  35 |  5 |   0 |   0 | 0.000000e+00 | 2.991839e+00 |    Inf | unknown
  0.1s|     1 |     0 |   144 |     - |  2445k |   0 |  96 |  50 | 103 |  41 |  6 |   0 |   0 | 0.000000e+00 | 2.991839e+00 |    Inf | unknown
  0.1s|     1 |     0 |   155 |     - |  2567k |   0 |  96 |  50 | 110 |  48 |  7 |   0 |   0 | 0.000000e+00 | 2.991839e+00 |    Inf | unknown
  0.1s|     1 |     0 |   161 |     - |  2667k |   0 |  96 |  50 | 115 |  53 |  8 |   0 |   0 | 0.000000e+00 | 2.991839e+00 |    Inf | unknown
  0.1s|     1 |     0 |   173 |     - |  2734k |   0 |  96 |  50 | 119 |  57 |  9 |   0 |   0 | 0.000000e+00 | 2.991839e+00 |    Inf | unknown
  0.1s|     1 |     0 |   191 |     - |  2816k |   0 |  96 |  50 | 125 |  63 | 10 |   0 |   0 | 0.000000e+00 | 2.991839e+00 |    Inf | unknown
 time | node  | left  |LP iter|LP it/n|mem/heur|mdpt |vars |cons |rows |cuts |sepa|confs|strbr|  dualbound   | primalbound  |  gap   | compl. 
  0.1s|     1 |     0 |   200 |     - |  2861k |   0 |  96 |  50 | 131 |  69 | 11 |   0 |   0 | 0.000000e+00 | 2.991839e+00 |    Inf | unknown
  0.3s|     1 |     0 |   271 |     - |  3297k |   0 |  96 |  50 | 131 |  69 | 11 |   0 |   5 | 0.000000e+00 | 2.991839e+00 |    Inf | unknown
  0.4s|     1 |     0 |   285 |     - |  3581k |   0 |  96 |  50 | 140 |  78 | 12 |   0 |   5 | 0.000000e+00 | 2.991839e+00 |    Inf | unknown
  0.4s|     1 |     0 |   293 |     - |  3581k |   0 |  96 |  50 | 144 |  82 | 13 |   0 |   5 | 0.000000e+00 | 2.991839e+00 |    Inf | unknown
  0.4s|     1 |     0 |   293 |     - |  3581k |   0 |  96 |  50 | 144 |  82 | 13 |   0 |  10 | 0.000000e+00 | 2.991839e+00 |    Inf | unknown
  0.4s|     1 |     0 |   304 |     - |  3625k |   0 |  96 |  50 | 149 |  87 | 14 |   0 |  10 | 0.000000e+00 | 2.991839e+00 |    Inf | unknown
  0.4s|     1 |     0 |   309 |     - |  3627k |   0 |  96 |  50 | 153 |  91 | 15 |   0 |  10 | 0.000000e+00 | 2.991839e+00 |    Inf | unknown
  0.4s|     1 |     0 |   309 |     - |  3629k |   0 |  96 |  50 | 153 |  91 | 15 |   0 |  15 | 0.000000e+00 | 2.991839e+00 |    Inf | unknown
  0.4s|     1 |     0 |   316 |     - |  3644k |   0 |  96 |  50 | 160 |  98 | 16 |   0 |  15 | 0.000000e+00 | 2.991839e+00 |    Inf | unknown
  0.4s|     1 |     0 |   323 |     - |  3646k |   0 |  96 |  50 |  83 | 103 | 17 |   0 |  15 | 0.000000e+00 | 2.991839e+00 |    Inf | unknown
  0.4s|     1 |     0 |   323 |     - |  3648k |   0 |  96 |  50 |  83 | 103 | 17 |   0 |  20 | 0.000000e+00 | 2.991839e+00 |    Inf | unknown
  0.4s|     1 |     0 |   330 |     - |  3657k |   0 |  96 |  50 |  88 | 108 | 18 |   0 |  20 | 0.000000e+00 | 2.991839e+00 |    Inf | unknown
  0.4s|     1 |     0 |   337 |     - |  3657k |   0 |  96 |  50 |  93 | 113 | 19 |   0 |  20 | 0.000000e+00 | 2.991839e+00 |    Inf | unknown
  0.4s|     1 |     0 |   337 |     - |  3659k |   0 |  96 |  50 |  93 | 113 | 19 |   0 |  25 | 0.000000e+00 | 2.991839e+00 |    Inf | unknown
  0.4s|     1 |     0 |   347 |     - |  3668k |   0 |  96 |  50 |  99 | 119 | 20 |   0 |  25 | 0.000000e+00 | 2.991839e+00 |    Inf | unknown
 time | node  | left  |LP iter|LP it/n|mem/heur|mdpt |vars |cons |rows |cuts |sepa|confs|strbr|  dualbound   | primalbound  |  gap   | compl. 
  0.4s|     1 |     0 |   354 |     - |  3669k |   0 |  96 |  50 | 104 | 124 | 21 |   0 |  25 | 0.000000e+00 | 2.991839e+00 |    Inf | unknown
  0.4s|     1 |     0 |   354 |     - |  3670k |   0 |  96 |  50 | 104 | 124 | 21 |   0 |  27 | 0.000000e+00 | 2.991839e+00 |    Inf | unknown
  0.4s|     1 |     0 |   359 |     - |  3680k |   0 |  96 |  50 | 108 | 128 | 22 |   0 |  27 | 0.000000e+00 | 2.991839e+00 |    Inf | unknown
  0.4s|     1 |     0 |   363 |     - |  3687k |   0 |  96 |  50 |  75 | 131 | 23 |   0 |  27 | 0.000000e+00 | 2.991839e+00 |    Inf | unknown
  0.4s|     1 |     2 |   363 |     - |  3689k |   0 |  96 |  50 |  75 | 131 | 23 |   0 |  27 | 0.000000e+00 | 2.991839e+00 |    Inf | unknown
  0.9s|   100 |    69 |  4800 |  45.9 |  6009k |  12 |  96 |  62 |  75 |2227 |  1 |  29 | 176 | 0.000000e+00 | 2.991839e+00 |    Inf |  15.33%
t 0.9s|   125 |    78 |  5915 |  45.6 |  trysol|  14 |  96 |  66 |   0 |2671 |  0 |  44 | 179 | 0.000000e+00 | 2.512709e+00 |    Inf |  19.51%
  1.2s|   200 |   135 |  9314 |  45.5 |  6796k |  18 |  96 |  66 | 113 |4122 |  2 |  66 | 180 | 2.550242e-01 | 2.512709e+00 | 885.28%|  29.24%
L 1.2s|   219 |   137 |  9715 |  43.4 |    alns|  20 |  96 |  50 | 167 |4323 |  0 |  66 | 180 | 7.934641e-01 | 2.369822e+00 | 198.67%|  31.73%
L 1.2s|   219 |   137 |  9715 |  43.4 |    alns|  20 |  96 |  50 | 167 |4323 |  0 |  66 | 180 | 7.934641e-01 | 2.369819e+00 | 198.67%|  31.73%
* 1.2s|   220 |   125 |  9743 |  43.3 |    LP  |  20 |  96 |  50 | 191 |4347 |  9 |  66 | 180 | 7.934641e-01 | 2.199152e+00 | 177.16%|  38.04%
  1.5s|   300 |   153 | 12011 |  39.3 |  7601k |  20 |  96 |  52 | 175 |5356 |  6 |  76 | 180 | 9.764803e-01 | 2.199152e+00 | 125.21%|  44.43%
  1.8s|   400 |   139 | 14638 |  36.0 |  9952k |  20 |  96 |  53 | 185 |6370 |  1 |  83 | 181 | 1.068312e+00 | 2.199152e+00 | 105.85%|  57.23%
  2.2s|   500 |   129 | 16890 |  33.3 |    10M |  20 |  96 |  60 | 187 |7361 |  5 |  94 | 182 | 1.217012e+00 | 2.199152e+00 |  80.70%|  66.92%
  2.4s|   600 |    98 | 18406 |  30.3 |    10M |  20 |  96 |  61 | 149 |8039 |  0 |  98 | 194 | 1.419816e+00 | 2.199152e+00 |  54.89%|  77.04%
 time | node  | left  |LP iter|LP it/n|mem/heur|mdpt |vars |cons |rows |cuts |sepa|confs|strbr|  dualbound   | primalbound  |  gap   | compl. 
  2.5s|   700 |    62 | 19786 |  27.9 |    10M |  20 |  96 |  67 | 178 |8708 |  0 | 111 | 197 | 1.629583e+00 | 2.199152e+00 |  34.95%|  87.72%
  2.7s|   800 |     5 | 21183 |  26.2 |    10M |  20 |  96 |  68 | 112 |9092 |  2 | 121 | 202 | 1.880727e+00 | 2.199152e+00 |  16.93%|  98.81%

SCIP Status        : problem is solved [optimal solution found]
Solving Time (sec) : 2.70
Solving Nodes      : 805
Primal Bound       : +2.19915213722237e+00 (28 solutions)
Dual Bound         : +2.19915213722237e+00
Gap                : 0.00 %


--- Reading solution for model GAMS_MODEL
***
*** Solver did not provide marginals for model GAMS_MODEL
***
--- Executing after solve: elapsed 0:00:02.766
--- model.gms(226) 3 Mb
--- model.gms(382) 5 Mb
--- Putfile results /local/scratch/a/sgusev/repos/k_means/data/gams_scip_gdp.bigm/no_mode/2026-02-15_21-42-21/original/results.dat
--- Putfile statresults /local/scratch/a/sgusev/repos/k_means/data/gams_scip_gdp.bigm/no_mode/2026-02-15_21-42-21/original/resultsstat.dat
*** Status: Normal completion
--- Job model.gms Stop 02/15/26 21:42:24 elapsed 0:00:02.767
Original problem solved. Time taken: 3.308124303817749 seconds
Original objective value: 2.199152137222356
